(set-option :print-success false)
(set-logic QF_UF)
(declare-sort x112 0)
(declare-sort x116 0)
(declare-fun x139 (x116 x116) x116)
(declare-fun x9 () x116)
(declare-fun x145 () x116)
(declare-fun x84 (x116 x116) x116)
(declare-fun x154 () x116)
(declare-fun x71 () x116)
(declare-fun x149 () x116)
(assert (not (and (= (x139 x9 x9) x149) (and (and (= (x139 x9 x71) x145) (and (and (and (and (= (x139 x145 x145) x9) (and (and (= x154 (x139 x145 x154)) (and (= (x139 x145 x149) x145) (and (and (= x154 (x139 x71 x145)) (and (= x9 (x139 x71 x71)) (and (and (= (x139 x71 x149) x149) (and (= (x139 x154 x9) x154) (and (= (x139 x154 x145) x145) (and (= (x139 x154 x71) x71) (and (= (x139 x154 x154) x149) (and (and (and (= (x139 x149 x145) x149) (and (= (x139 x149 x71) x154) (and (= (x139 x149 x154) x145) (= x71 (x139 x149 x149))))) (= (x139 x149 x9) x9)) (= (x139 x154 x149) x9))))))) (= x71 (x139 x71 x154))))) (= x145 (x139 x71 x9))))) (= x149 (x139 x145 x71)))) (= (x139 x145 x9) x71)) (= x154 (x139 x9 x149))) (= x9 (x139 x9 x154)))) (= (x139 x9 x145) x71)))))
(assert (and (or (= x9 (x139 x9 (x139 x9 x9))) (or (or (= (x139 x9 (x139 x9 x71)) x71) (or (= x154 (x139 x9 (x139 x9 x154))) (= x149 (x139 x9 (x139 x9 x149))))) (= (x139 x9 (x139 x9 x145)) x145))) (and (and (or (= x9 (x139 x71 (x139 x71 x9))) (or (or (= x71 (x139 x71 (x139 x71 x71))) (or (= x149 (x139 x71 (x139 x71 x149))) (= x154 (x139 x71 (x139 x71 x154))))) (= (x139 x71 (x139 x71 x145)) x145))) (and (or (= x9 (x139 x154 (x139 x154 x9))) (or (or (= (x139 x154 (x139 x154 x71)) x71) (or (= x154 (x139 x154 (x139 x154 x154))) (= (x139 x154 (x139 x154 x149)) x149))) (= (x139 x154 (x139 x154 x145)) x145))) (or (= (x139 x149 (x139 x149 x9)) x9) (or (or (or (= x149 (x139 x149 (x139 x149 x149))) (= x154 (x139 x149 (x139 x149 x154)))) (= x71 (x139 x149 (x139 x149 x71)))) (= (x139 x149 (x139 x149 x145)) x145))))) (or (= x9 (x139 x145 (x139 x145 x9))) (or (or (= (x139 x145 (x139 x145 x71)) x71) (or (= x149 (x139 x145 (x139 x145 x149))) (= x154 (x139 x145 (x139 x145 x154))))) (= x145 (x139 x145 (x139 x145 x145))))))))
(assert (let ((x24 (x139 x154 x9)) (x35 (x139 x9 x154)) (x4 (x139 x9 x145)) (x76 (x139 x9 x9)) (x8 (x139 x149 x145)) (x41 (x139 x149 x9)) (x58 (x139 x71 x71)) (x12 (x139 x71 x149)) (x125 (x139 x149 x154)) (x137 (x139 x154 x71)) (x13 (x139 x149 x149)) (x74 (x139 x154 x145)) (x54 (x139 x149 x71)) (x113 (x139 x145 x149)) (x44 (x139 x145 x145)) (x120 (x139 x145 x9)) (x34 (x139 x145 x71)) (x30 (x139 x9 x71)) (x136 (x139 x71 x9)) (x59 (x139 x154 x149)) (x26 (x139 x9 x149)) (x151 (x139 x145 x154)) (x109 (x139 x154 x154)) (x141 (x139 x71 x145)) (x20 (x139 x71 x154))) (let ((x97 (= x145 x109)) (x32 (= x9 x141)) (x89 (= x145 x58)) (x23 (= x9 x125)) (x46 (= x125 x149)) (x67 (= x26 x9)) (x131 (= x24 x71)) (x36 (= x149 x137)) (x153 (= x12 x71)) (x63 (= x151 x149)) (x152 (= x24 x145)) (x38 (= x154 x76)) (x62 (= x149 x120)) (x68 (= x136 x71)) (x82 (= x113 x154)) (x130 (= x145 x137)) (x133 (= x145 x141)) (x75 (= x145 x30)) (x16 (= x9 x44)) (x88 (= x71 x120)) (x69 (= x154 x44)) (x122 (= x154 x58)) (x27 (= x9 x74)) (x79 (= x145 x136)) (x85 (= x137 x154)) (x64 (= x141 x154)) (x144 (= x154 x4)) (x1 (= x154 x24)) (x65 (= x74 x71)) (x28 (= x109 x154)) (x22 (= x8 x149)) (x29 (= x136 x149)) (x157 (= x71 x109)) (x2 (= x74 x145)) (x129 (= x151 x145)) (x140 (= x41 x145)) (x50 (= x20 x9)) (x124 (= x149 x34)) (x51 (= x54 x149)) (x117 (= x154 x30)) (x143 (= x141 x149)) (x126 (= x120 x154)) (x66 (= x149 x13)) (x106 (= x35 x154)) (x95 (= x120 x9)) (x25 (= x41 x154)) (x49 (= x149 x76)) (x53 (= x149 x12)) (x87 (= x145 x20)) (x60 (= x35 x9)) (x56 (= x137 x9)) (x93 (= x154 x136)) (x156 (= x71 x54)) (x138 (= x58 x9)) (x90 (= x71 x34)) (x134 (= x44 x71)) (x72 (= x145 x44)) (x48 (= x59 x149)) (x21 (= x145 x8)) (x61 (= x141 x71)) (x55 (= x109 x149)) (x119 (= x30 x149)) (x150 (= x137 x71)) (x33 (= x26 x154)) (x39 (= x20 x149)) (x111 (= x125 x71)) (x159 (= x149 x44)) (x101 (= x151 x71)) (x11 (= x13 x71)) (x81 (= x24 x9)) (x115 (= x54 x9)) (x10 (= x145 x76)) (x37 (= x145 x13)) (x80 (= x8 x71)) (x5 (= x149 x26)) (x148 (= x113 x145)) (x142 (= x71 x35)) (x102 (= x4 x149)) (x98 (= x154 x125)) (x92 (= x149 x74)) (x114 (= x151 x154)) (x78 (= x145 x34)) (x40 (= x71 x59)) (x118 (= x71 x113)) (x158 (= x35 x145)) (x7 (= x34 x9)) (x135 (= x9 x13)) (x128 (= x149 x35)) (x18 (= x9 x113)) (x43 (= x4 x71)) (x123 (= x9 x136)) (x104 (= x145 x26)) (x147 (= x154 x20)) (x47 (= x71 x41)) (x91 (= x12 x154)) (x17 (= x58 x149)) (x15 (= x41 x9)) (x155 (= x54 x154)) (x70 (= x12 x145)) (x94 (= x154 x13)) (x6 (= x24 x149)) (x19 (= x54 x145)) (x14 (= x9 x59)) (x96 (= x149 x41)) (x3 (= x58 x71)) (x105 (= x9 x151)) (x83 (= x154 x34)) (x108 (= x8 x154)) (x127 (= x4 x145)) (x77 (= x9 x76)) (x110 (= x9 x4)) (x103 (= x76 x71)) (x57 (= x145 x59)) (x52 (= x71 x26)) (x99 (= x71 x30)) (x132 (= x145 x120)) (x73 (= x154 x59)) (x121 (= x20 x71)) (x42 (= x109 x9)) (x100 (= x9 x30)) (x31 (= x12 x9)) (x45 (= x149 x113)) (x107 (= x8 x9)) (x146 (= x74 x154)) (x86 (= x125 x145))) (and (and (and (and (and (and (and (or (or (or x70 (or x57 x37)) x148) x104) (or (or (or x19 (or x86 x37)) x21) x140)) (and (and (or (or x80 (or (or x111 x11) x156)) x47) (or (or x118 (or (or x11 x40) x153)) x52)) (and (and (or x25 (or x108 (or (or x94 x98) x155))) (or (or (or (or x94 x73) x91) x82) x33)) (and (or (or x45 (or x53 (or x48 x66))) x5) (or (or x22 (or (or x46 x66) x51)) x96))))) (and (or (or (or x115 (or x135 x23)) x107) x15) (or (or x18 (or (or x14 x135) x31)) x67))) (and (and (or (or x27 (or x56 (or x42 x14))) x81) (or (or (or (or x23 x42) x50) x105) x60)) (and (and (and (or (or x101 (or (or x157 x111) x121)) x142) (or (or (or (or x157 x40) x150) x65) x131)) (and (and (or (or (or x39 (or x46 x55)) x63) x128) (or (or (or x36 (or x48 x55)) x92) x6)) (and (or x1 (or x146 (or x85 (or x28 x73)))) (or x106 (or (or x147 (or x28 x98)) x114))))) (and (or x152 (or x2 (or (or x57 x97) x130))) (or x158 (or (or (or x97 x86) x87) x129)))))) (and (and (or (or (or x138 (or x56 x115)) x7) x100) (or (or x32 (or (or x50 x31) x138)) x123)) (and (and (and (and (or (or x83 (or (or x155 x85) x122)) x117) (or (or (or x122 (or x91 x147)) x64) x93)) (and (or x119 (or (or (or x51 x36) x17) x124)) (or (or (or (or x39 x53) x17) x143) x29))) (and (or x68 (or (or (or x121 x153) x3) x61)) (or (or x90 (or (or x156 x150) x3)) x99))) (and (or (or (or (or x19 x130) x89) x78) x75) (or (or (or x89 (or x70 x87)) x133) x79))))) (and (and (or (or (or x7 (or x105 x18)) x16) x95) (or x110 (or x16 (or (or x107 x27) x32)))) (and (and (and (or x88 (or x134 (or x90 (or x101 x118)))) (or (or (or x61 (or x80 x65)) x134) x43)) (and (and (or x126 (or x69 (or (or x82 x114) x83))) (or (or x69 (or x64 (or x146 x108))) x144)) (and (or x62 (or x159 (or x124 (or x45 x63)))) (or x102 (or (or x143 (or x22 x92)) x159))))) (and (or (or (or x78 (or x129 x148)) x72) x132) (or x127 (or x72 (or x133 (or x21 x2)))))))) (and (and (or x77 (or (or (or x81 x15) x123) x95)) (or x77 (or x110 (or (or x67 x60) x100)))) (and (and (or (or (or (or x104 x158) x75) x127) x10) (or x10 (or x132 (or (or x140 x152) x79)))) (and (and (or x103 (or (or (or x131 x47) x68) x88)) (or (or (or (or x142 x52) x99) x43) x103)) (and (and (or x49 (or (or (or x96 x6) x29) x62)) (or x49 (or (or x119 (or x128 x5)) x102))) (and (or (or (or (or x1 x25) x93) x126) x38) (or (or x144 (or x117 (or x33 x106))) x38))))))))))
(assert (let ((x39 (x139 x154 x154)) (x147 (x139 x145 x154)) (x121 (x139 x145 x71)) (x40 (x139 x149 x154)) (x151 (x139 x149 x149)) (x56 (x139 x9 x145)) (x57 (x139 x71 x149)) (x91 (x139 x154 x145)) (x153 (x139 x71 x145)) (x23 (x139 x9 x149)) (x156 (x139 x71 x9)) (x58 (x139 x154 x9)) (x150 (x139 x9 x71)) (x34 (x139 x71 x71)) (x82 (x139 x9 x9)) (x115 (x139 x145 x9)) (x157 (x139 x149 x71)) (x36 (x139 x154 x71)) (x31 (x139 x145 x145)) (x17 (x139 x71 x154)) (x86 (x139 x149 x145)) (x111 (x139 x154 x149)) (x141 (x139 x9 x154)) (x14 (x139 x149 x9)) (x97 (x139 x145 x149))) (let ((x8 (not (= x149 x57))) (x37 (not (= x149 x91))) (x67 (not (= x23 x9))) (x122 (not (= x154 x36))) (x42 (not (= x111 x154))) (x133 (not (= x71 x150))) (x13 (not (= x111 x149))) (x98 (not (= x149 x56))) (x135 (not (= x121 x149))) (x29 (not (= x86 x145))) (x51 (not (= x39 x154))) (x7 (not (= x71 x82))) (x93 (not (= x150 x145))) (x45 (not (= x154 x14))) (x74 (not (= x150 x149))) (x89 (not (= x153 x154))) (x3 (not (= x154 x97))) (x24 (not (= x156 x149))) (x4 (not (= x36 x71))) (x35 (not (= x154 x151))) (x78 (not (= x71 x14))) (x61 (not (= x71 x121))) (x128 (not (= x157 x145))) (x16 (not (= x39 x145))) (x123 (not (= x56 x9))) (x11 (not (= x147 x149))) (x50 (not (= x154 x31))) (x146 (not (= x57 x71))) (x118 (not (= x34 x71))) (x33 (not (= x121 x145))) (x99 (not (= x151 x9))) (x59 (not (= x36 x149))) (x66 (not (= x151 x149))) (x55 (not (= x149 x23))) (x80 (not (= x147 x71))) (x2 (not (= x71 x58))) (x72 (not (= x71 x156))) (x130 (not (= x154 x121))) (x83 (not (= x151 x71))) (x131 (not (= x39 x9))) (x44 (not (= x111 x71))) (x107 (not (= x151 x145))) (x26 (not (= x149 x86))) (x90 (not (= x86 x71))) (x25 (not (= x145 x141))) (x75 (not (= x97 x9))) (x12 (not (= x34 x149))) (x1 (not (= x145 x58))) (x63 (not (= x141 x154))) (x114 (not (= x82 x154))) (x120 (not (= x71 x40))) (x52 (not (= x115 x145))) (x60 (not (= x14 x9))) (x102 (not (= x36 x145))) (x20 (not (= x149 x82))) (x105 (not (= x115 x71))) (x88 (not (= x157 x9))) (x148 (not (= x71 x31))) (x87 (not (= x147 x154))) (x69 (not (= x71 x17))) (x138 (not (= x154 x23))) (x19 (not (= x154 x91))) (x119 (not (= x145 x17))) (x43 (not (= x9 x111))) (x129 (not (= x71 x23))) (x85 (not (= x17 x154))) (x109 (not (= x149 x141))) (x127 (not (= x86 x9))) (x46 (not (= x149 x31))) (x108 (not (= x71 x39))) (x110 (not (= x9 x58))) (x96 (not (= x145 x34))) (x104 (not (= x9 x36))) (x103 (not (= x17 x9))) (x140 (not (= x147 x9))) (x77 (not (= x9 x82))) (x47 (not (= x9 x40))) (x142 (not (= x145 x82))) (x41 (not (= x157 x149))) (x38 (not (= x145 x56))) (x6 (not (= x97 x145))) (x106 (not (= x145 x153))) (x100 (not (= x141 x9))) (x18 (not (= x56 x71))) (x68 (not (= x9 x57))) (x144 (not (= x23 x145))) (x92 (not (= x154 x156))) (x49 (not (= x91 x145))) (x81 (not (= x156 x9))) (x30 (not (= x154 x34))) (x32 (not (= x145 x40))) (x124 (not (= x154 x58))) (x73 (not (= x149 x14))) (x64 (not (= x157 x71))) (x21 (not (= x71 x141))) (x155 (not (= x157 x154))) (x70 (not (= x86 x154))) (x117 (not (= x31 x145))) (x15 (not (= x9 x150))) (x48 (not (= x153 x149))) (x143 (not (= x56 x154))) (x134 (not (= x71 x153))) (x136 (not (= x57 x154))) (x101 (not (= x71 x97))) (x79 (not (= x121 x9))) (x76 (not (= x14 x145))) (x113 (not (= x149 x97))) (x28 (not (= x149 x115))) (x62 (not (= x145 x147))) (x158 (not (= x9 x34))) (x22 (not (= x154 x150))) (x152 (not (= x91 x9))) (x137 (not (= x149 x58))) (x53 (not (= x154 x40))) (x65 (not (= x91 x71))) (x125 (not (= x149 x40))) (x126 (not (= x156 x145))) (x159 (not (= x154 x115))) (x94 (not (= x149 x17))) (x54 (not (= x149 x39))) (x10 (not (= x9 x31))) (x95 (not (= x115 x9))) (x5 (not (= x145 x57))) (x132 (not (= x153 x9))) (x27 (not (= x145 x111)))) (or (and (and (and (or x123 x95) (and (or x15 x81) (and (or x67 x60) (or x110 x100)))) (or x77 x77)) (and (and (and (and (or x132 x79) (and (and (or x68 x88) (or x103 x104)) (or x158 x158))) (or x15 x81)) (and (and (or x67 x60) (and (and (and (or x99 x99) (or x47 x43)) (or x68 x88)) (or x75 x127))) (and (or x110 x100) (and (or x152 x140) (and (and (or x43 x47) (or x131 x131)) (or x104 x103)))))) (and (or x123 x95) (and (or x10 x10) (and (and (or x152 x140) (or x127 x75)) (or x79 x132)))))) (or (or (or (and (and (and (or x28 x98) (and (and (or x135 x48) (and (or x11 x37) (or x26 x113))) (or x46 x46))) (and (and (and (or x73 x55) (and (and (and (or x66 x66) (or x13 x125)) (or x8 x41)) (or x113 x26))) (and (and (and (or x94 x59) (and (or x54 x54) (or x125 x13))) (or x37 x11)) (or x109 x137))) (and (and (or x135 x48) (and (and (or x94 x59) (or x8 x41)) (or x12 x12))) (or x24 x74)))) (and (or x20 x20) (and (and (or x24 x74) (and (or x55 x73) (or x109 x137))) (or x28 x98)))) (and (and (and (and (and (and (or x3 x70) (and (and (or x35 x35) (or x42 x53)) (or x155 x136))) (or x45 x138)) (and (and (and (and (or x51 x51) (or x53 x42)) (or x85 x122)) (or x19 x87)) (or x63 x124))) (and (or x22 x92) (and (and (or x30 x30) (and (or x136 x155) (or x85 x122))) (or x130 x89)))) (and (or x159 x143) (and (and (or x130 x89) (and (or x19 x87) (or x3 x70))) (or x50 x50)))) (and (or x114 x114) (and (and (or x22 x92) (and (or x63 x124) (or x138 x45))) (or x159 x143))))) (and (and (and (or x18 x105) (and (or x72 x133) (and (or x78 x129) (or x21 x2)))) (or x7 x7)) (and (and (and (or x72 x133) (and (and (and (or x4 x69) (or x146 x64)) (or x118 x118)) (or x134 x61))) (and (and (or x129 x78) (and (and (or x64 x146) (and (or x44 x120) (or x83 x83))) (or x90 x101))) (and (or x2 x21) (and (or x65 x80) (and (and (or x108 x108) (or x44 x120)) (or x4 x69)))))) (and (or x18 x105) (and (and (and (or x90 x101) (or x65 x80)) (or x61 x134)) (or x148 x148)))))) (and (and (and (or x38 x52) (and (or x117 x117) (and (or x106 x33) (and (or x49 x62) (or x29 x6))))) (and (and (and (and (or x62 x49) (and (and (or x27 x32) (or x16 x16)) (or x102 x119))) (or x1 x25)) (and (and (or x6 x29) (and (and (or x32 x27) (or x107 x107)) (or x5 x128))) (or x144 x76))) (and (or x93 x126) (and (or x33 x106) (and (or x96 x96) (and (or x128 x5) (or x119 x102))))))) (and (and (and (or x126 x93) (and (or x1 x25) (or x76 x144))) (or x52 x38)) (or x142 x142))))))))
(assert (or (and (and (and (and (not (= x149 (x139 x9 x149))) (not (= x154 (x139 x9 x154)))) (not (= (x139 x9 x71) x71))) (not (= x145 (x139 x9 x145)))) (not (= x9 (x139 x9 x9)))) (or (or (or (and (not (= x9 (x139 x149 x9))) (and (and (and (not (= x149 (x139 x149 x149))) (not (= x154 (x139 x149 x154)))) (not (= x71 (x139 x149 x71)))) (not (= x145 (x139 x149 x145))))) (and (and (not (= x145 (x139 x154 x145))) (and (not (= (x139 x154 x71) x71)) (and (not (= x149 (x139 x154 x149))) (not (= x154 (x139 x154 x154)))))) (not (= (x139 x154 x9) x9)))) (and (not (= (x139 x71 x9) x9)) (and (not (= x145 (x139 x71 x145))) (and (not (= x71 (x139 x71 x71))) (and (not (= x149 (x139 x71 x149))) (not (= (x139 x71 x154) x154))))))) (and (and (and (and (not (= (x139 x145 x149) x149)) (not (= x154 (x139 x145 x154)))) (not (= (x139 x145 x71) x71))) (not (= x145 (x139 x145 x145)))) (not (= x9 (x139 x145 x9)))))))
(assert (let ((x55 (x139 x145 x154)) (x28 (x139 x9 x145)) (x20 (x139 x9 x9)) (x13 (x139 x149 x154)) (x73 (x139 x145 x71)) (x66 (x139 x149 x149)) (x109 (x139 x145 x145)) (x113 (x139 x154 x9)) (x125 (x139 x149 x71)) (x98 (x139 x9 x71)) (x137 (x139 x145 x9)) (x37 (x139 x71 x71)) (x46 (x139 x145 x149)) (x24 (x139 x9 x154)) (x54 (x139 x149 x145)) (x8 (x139 x149 x9)) (x59 (x139 x154 x71)) (x48 (x139 x71 x9)) (x12 (x139 x154 x145)) (x26 (x139 x71 x149)) (x41 (x139 x154 x149)) (x74 (x139 x9 x149)) (x135 (x139 x71 x145)) (x94 (x139 x154 x154)) (x11 (x139 x71 x154))) (or (and (and (and (not (= x71 (x139 x98 x98))) (and (not (= (x139 x74 x74) x149)) (not (= x154 (x139 x24 x24))))) (not (= (x139 x28 x28) x145))) (not (= x9 (x139 x20 x20)))) (or (or (and (not (= x9 (x139 x48 x48))) (and (and (not (= (x139 x37 x37) x71)) (and (not (= x149 (x139 x26 x26))) (not (= (x139 x11 x11) x154)))) (not (= x145 (x139 x135 x135))))) (or (and (and (and (not (= (x139 x59 x59) x71)) (and (not (= (x139 x41 x41) x149)) (not (= x154 (x139 x94 x94))))) (not (= x145 (x139 x12 x12)))) (not (= x9 (x139 x113 x113)))) (and (not (= (x139 x8 x8) x9)) (and (not (= (x139 x54 x54) x145)) (and (and (not (= x154 (x139 x13 x13))) (not (= x149 (x139 x66 x66)))) (not (= x71 (x139 x125 x125)))))))) (and (not (= x9 (x139 x137 x137))) (and (not (= (x139 x109 x109) x145)) (and (and (not (= (x139 x55 x55) x154)) (not (= (x139 x46 x46) x149))) (not (= (x139 x73 x73) x71)))))))))
(assert (let ((x54 (x139 x145 x145)) (x66 (x139 x149 x149)) (x125 (x139 x71 x71)) (x8 (x139 x9 x9)) (x13 (x139 x154 x154))) (and (and (and (and (not (= (x139 x66 x66) x149)) (not (= x154 (x139 x13 x13)))) (not (= x71 (x139 x125 x125)))) (not (= x145 (x139 x54 x54)))) (not (= (x139 x8 x8) x9)))))
(assert (let ((x8 (x139 x9 x9)) (x13 (x139 x154 x154)) (x125 (x139 x71 x71)) (x54 (x139 x145 x145)) (x66 (x139 x149 x149))) (and (or (or (or (= x71 (x139 x125 x71)) (or (= (x139 x13 x154) x154) (= x149 (x139 x66 x149)))) (= x145 (x139 x54 x145))) (= x9 (x139 x8 x9))) (or (or (or (and (and (and (and (not (= x71 (x139 x149 (x139 x71 x149)))) (not (= (x139 x154 (x139 x71 x154)) x71))) (not (= x71 (x139 x71 x125)))) (not (= x71 (x139 x145 (x139 x71 x145))))) (not (= x71 (x139 x9 (x139 x71 x9))))) (or (and (and (and (and (not (= (x139 x154 x13) x154)) (not (= (x139 x149 (x139 x154 x149)) x154))) (not (= (x139 x71 (x139 x154 x71)) x154))) (not (= (x139 x145 (x139 x154 x145)) x154))) (not (= (x139 x9 (x139 x154 x9)) x154))) (and (not (= x149 (x139 x9 (x139 x149 x9)))) (and (and (not (= (x139 x71 (x139 x149 x71)) x149)) (and (not (= x149 (x139 x154 (x139 x149 x154)))) (not (= x149 (x139 x149 x66))))) (not (= x149 (x139 x145 (x139 x149 x145)))))))) (and (not (= x145 (x139 x9 (x139 x145 x9)))) (and (and (not (= x145 (x139 x71 (x139 x145 x71)))) (and (not (= x145 (x139 x149 (x139 x145 x149)))) (not (= (x139 x154 (x139 x145 x154)) x145)))) (not (= (x139 x145 x54) x145))))) (and (and (and (and (not (= x9 (x139 x149 (x139 x9 x149)))) (not (= (x139 x154 (x139 x9 x154)) x9))) (not (= x9 (x139 x71 (x139 x9 x71))))) (not (= x9 (x139 x145 (x139 x9 x145))))) (not (= (x139 x9 x8) x9)))))))
(assert (and (and (= x145 (x139 x71 x9)) (and (= (x139 x154 x154) x149) (= x71 (x139 x149 x149)))) (= (x139 x71 x71) x9)))
(assert (let ((x37 (x139 x71 x71)) (x26 (x139 x149 x71)) (x48 (x139 x9 x71)) (x41 (x139 x149 x154)) (x46 (x139 x149 x145)) (x24 (x139 x154 x9)) (x11 (x139 x154 x71)) (x73 (x139 x71 x145)) (x109 (x139 x145 x145)) (x20 (x139 x9 x9)) (x55 (x139 x154 x145)) (x74 (x139 x149 x9)) (x54 (x139 x145 x149)) (x125 (x139 x71 x149)) (x28 (x139 x145 x9)) (x137 (x139 x9 x145)) (x59 (x139 x71 x154)) (x12 (x139 x145 x154)) (x135 (x139 x145 x71)) (x8 (x139 x9 x149)) (x113 (x139 x9 x154)) (x98 (x139 x71 x9)) (x94 (x139 x154 x154)) (x13 (x139 x154 x149)) (x66 (x139 x149 x149))) (or (or (and (and (not (= x145 (x139 x109 x109))) (and (and (not (= (x139 x46 x46) x149)) (not (= (x139 x55 x55) x154))) (not (= (x139 x73 x73) x71)))) (not (= (x139 x137 x137) x9))) (or (and (not (= x9 (x139 x48 x48))) (and (not (= (x139 x135 x135) x145)) (and (not (= (x139 x37 x37) x71)) (and (not (= (x139 x11 x11) x154)) (not (= (x139 x26 x26) x149)))))) (or (and (and (and (not (= (x139 x125 x125) x71)) (and (not (= x149 (x139 x66 x66))) (not (= x154 (x139 x13 x13))))) (not (= (x139 x54 x54) x145))) (not (= (x139 x8 x8) x9))) (and (not (= x9 (x139 x113 x113))) (and (not (= x145 (x139 x12 x12))) (and (and (not (= x149 (x139 x41 x41))) (not (= x154 (x139 x94 x94)))) (not (= x71 (x139 x59 x59))))))))) (and (and (and (not (= x71 (x139 x98 x98))) (and (not (= x154 (x139 x24 x24))) (not (= x149 (x139 x74 x74))))) (not (= (x139 x28 x28) x145))) (not (= (x139 x20 x20) x9))))))
(assert (and (and (not (= x9 x71)) (and (not (= x145 x71)) (and (not (= x9 x154)) (and (and (and (and (not (= x149 x145)) (and (not (= x71 x149)) (not (= x149 x154)))) (not (= x9 x149))) (not (= x154 x71))) (not (= x154 x145)))))) (not (= x9 x145))))
(assert (let ((x135 (x139 x145 x71)) (x109 (x139 x9 x154)) (x151 (x139 x149 x149)) (x137 (x139 x154 x9)) (x98 (x139 x9 x145)) (x24 (x139 x71 x9)) (x113 (x139 x145 x149)) (x111 (x139 x149 x71)) (x8 (x139 x71 x149)) (x59 (x139 x154 x71)) (x28 (x139 x145 x9)) (x48 (x139 x71 x145)) (x97 (x139 x149 x9)) (x13 (x139 x154 x149)) (x11 (x139 x145 x154)) (x94 (x139 x71 x154)) (x54 (x139 x154 x154)) (x35 (x139 x149 x154)) (x55 (x139 x9 x149)) (x12 (x139 x71 x71)) (x20 (x139 x9 x9)) (x37 (x139 x154 x145)) (x46 (x139 x145 x145)) (x57 (x139 x149 x145)) (x74 (x139 x9 x71))) (let ((x66 (= x149 x151)) (x85 (= x71 x24)) (x73 (= x97 x149)) (x86 (= x145 x113)) (x141 (= x71 x48)) (x53 (= x94 x71)) (x58 (= x74 x9)) (x42 (= x154 x59)) (x17 (= x109 x9)) (x157 (= x8 x71)) (x155 (= x98 x9)) (x51 (= x11 x145)) (x41 (= x149 x111)) (x125 (= x149 x35)) (x136 (= x145 x46)) (x36 (= x137 x154)) (x147 (= x135 x145)) (x26 (= x57 x149)) (x39 (= x154 x37)) (x40 (= x154 x13)) (x91 (= x71 x12)) (x34 (= x9 x20)) (x14 (= x9 x55)) (x23 (= x54 x154)) (x122 (= x28 x145))) (and (and (and (and (or (or (or (and x122 (= x98 x154)) (or (or (and x73 (= x154 x55)) (and (= x154 x109) x36)) (and x85 (= x74 x154)))) (and (= x20 x154) x34)) (or (or (or (or (or (and x91 (= x154 x12)) (or (and (= x94 x154) x42) (and (= x8 x154) x41))) (and x147 (= x48 x154))) (and x58 (= x154 x24))) (or (or (and x36 x17) (or (and x39 x51) (or (or (and x40 x125) (and x23 x23)) (and x53 x42)))) (or (and (= x97 x154) x14) (or (and x86 (= x154 x57)) (or (or (and (= x154 x151) x66) (and x40 (= x35 x154))) (and (= x111 x154) x157)))))) (or (and x155 (= x154 x28)) (or (and (= x46 x154) x136) (or (or (and x39 (= x154 x11)) (and x26 (= x113 x154))) (and (= x135 x154) x141)))))) (or (or (or (or (or (and x141 (= x149 x135)) (or (and (= x149 x113) x26) (and (= x11 x149) x39))) (and x136 (= x46 x149))) (and x155 (= x149 x28))) (or (or (or (and x147 (= x149 x48)) (or (and x91 (= x149 x12)) (or (and (= x149 x8) x41) (and x42 (= x149 x94))))) (and (= x24 x149) x58)) (or (or (or (and x26 x86) (or (or (and x66 x66) (and x125 x40)) (and x41 x157))) (and x73 x14)) (or (and x17 (= x149 x137)) (or (or (and (= x59 x149) x53) (or (and x23 (= x149 x54)) (and (= x149 x13) x125))) (and (= x37 x149) x51)))))) (or (or (and x122 (= x98 x149)) (or (and x85 (= x74 x149)) (or (and (= x149 x55) x73) (and (= x109 x149) x36)))) (and (= x20 x149) x34)))) (or (or (or (or (or (and (= x71 x135) x141) (or (and x39 (= x71 x11)) (and (= x113 x71) x26))) (and x136 (= x46 x71))) (and (= x71 x28) x155)) (or (or (or (and x141 x147) (or (or (and x53 x42) (and x157 x41)) (and x91 x91))) (and x85 x58)) (or (or (or (and (= x37 x71) x51) (or (and (= x59 x71) x53) (or (and x125 (= x13 x71)) (and (= x54 x71) x23)))) (and (= x137 x71) x17)) (or (or (and x86 (= x71 x57)) (or (and x157 (= x111 x71)) (or (and x66 (= x151 x71)) (and x40 (= x35 x71))))) (and x14 (= x71 x97)))))) (or (and x34 (= x20 x71)) (or (or (and (= x71 x74) x85) (or (and x36 (= x109 x71)) (and (= x71 x55) x73))) (and (= x71 x98) x122))))) (or (or (or (and (= x145 x98) x122) (or (and (= x145 x74) x85) (or (and (= x109 x145) x36) (and (= x55 x145) x73)))) (and x34 (= x20 x145))) (or (or (and x155 x122) (or (and x136 x136) (or (or (and x26 x86) (and x51 x39)) (and x141 x147)))) (or (or (and x58 (= x24 x145)) (or (or (or (and (= x94 x145) x42) (and (= x8 x145) x41)) (and x91 (= x12 x145))) (and (= x145 x48) x147))) (or (or (and x17 (= x145 x137)) (or (and x51 (= x37 x145)) (or (and (= x59 x145) x53) (or (and x125 (= x13 x145)) (and (= x145 x54) x23))))) (or (and (= x97 x145) x14) (or (or (and x157 (= x111 x145)) (or (and x66 (= x151 x145)) (and x40 (= x35 x145)))) (and (= x145 x57) x86)))))))) (or (or (and x34 x34) (or (and x122 x155) (or (and x85 x58) (or (and x14 x73) (and x17 x36))))) (or (or (or (or (or (or (or (and x40 (= x9 x35)) (and x66 (= x9 x151))) (and x157 (= x9 x111))) (and (= x57 x9) x86)) (and (= x97 x9) x14)) (or (and x17 (= x9 x137)) (or (and (= x9 x37) x51) (or (and x53 (= x9 x59)) (or (and (= x54 x9) x23) (and x125 (= x13 x9))))))) (or (or (and x147 (= x9 x48)) (or (and x91 (= x12 x9)) (or (and x42 (= x9 x94)) (and x41 (= x9 x8))))) (and x58 (= x9 x24)))) (or (or (or (and (= x9 x135) x141) (or (and x39 (= x11 x9)) (and (= x113 x9) x26))) (and x136 (= x46 x9))) (and (= x9 x28) x155))))))))
(assert (let ((x59 (x139 x154 x71)) (x94 (x139 x71 x154)) (x20 (= x9 (x139 x9 x9))) (x26 (x139 x149 x145)) (x109 (x139 x9 x154)) (x137 (x139 x154 x9)) (x54 (= x154 (x139 x154 x154))) (x41 (x139 x149 x71)) (x37 (x139 x154 x145)) (x66 (= x149 (x139 x149 x149))) (x48 (x139 x71 x145)) (x74 (x139 x9 x71)) (x11 (x139 x145 x154)) (x12 (= x71 (x139 x71 x71))) (x55 (x139 x9 x149)) (x125 (x139 x149 x154)) (x135 (x139 x145 x71)) (x24 (x139 x71 x9)) (x98 (x139 x9 x145)) (x73 (x139 x149 x9)) (x8 (x139 x71 x149)) (x28 (x139 x145 x9)) (x113 (x139 x145 x149)) (x13 (x139 x154 x149)) (x46 (= (x139 x145 x145) x145))) (or (or (or (or (and (= x74 x9) (= x24 x9)) (or (and (= x9 x55) (= x73 x9)) (and (= x109 x9) (= x9 x137)))) (and (= x28 x9) (= x9 x98))) (and x20 x20)) (or (or (and (= x145 x98) (= x28 x145)) (or (or (or (and (= x11 x145) (= x145 x37)) (and (= x145 x26) (= x145 x113))) (and (= x48 x145) (= x145 x135))) (and x46 x46))) (or (or (and (= x24 x71) (= x71 x74)) (or (or (or (and (= x71 x8) (= x71 x41)) (and (= x71 x94) (= x71 x59))) (and x12 x12)) (and (= x71 x48) (= x71 x135)))) (or (or (or (or (or (and (= x149 x125) (= x13 x149)) (and x66 x66)) (and (= x41 x149) (= x8 x149))) (and (= x113 x149) (= x26 x149))) (and (= x149 x73) (= x149 x55))) (or (and (= x109 x154) (= x154 x137)) (or (and (= x154 x11) (= x154 x37)) (or (or (and x54 x54) (and (= x154 x125) (= x154 x13))) (and (= x154 x94) (= x154 x59)))))))))))
(assert (let ((x11 (x139 x71 x154)) (x73 (x139 x145 x71)) (x59 (x139 x154 x71)) (x55 (x139 x145 x154)) (x137 (x139 x145 x9)) (x8 (x139 x149 x9)) (x113 (x139 x154 x9)) (x37 (x139 x71 x71)) (x74 (x139 x9 x149)) (x26 (x139 x71 x149)) (x54 (x139 x149 x145)) (x135 (x139 x71 x145)) (x109 (x139 x145 x145)) (x24 (x139 x9 x154)) (x46 (x139 x145 x149)) (x28 (x139 x9 x145)) (x48 (x139 x71 x9)) (x66 (x139 x149 x149)) (x41 (x139 x154 x149)) (x12 (x139 x154 x145)) (x98 (x139 x9 x71)) (x125 (x139 x149 x71)) (x94 (x139 x154 x154)) (x13 (x139 x149 x154)) (x20 (x139 x9 x9))) (and (and (and (and (and (and (and (and (or (or (or (= x66 x71) (or (= x66 x154) (= x66 x149))) (= x145 x66)) (= x66 x9)) (or (= x13 x9) (or (= x145 x13) (or (= x13 x71) (or (= x13 x149) (= x154 x13)))))) (or (or (or (= x125 x71) (or (= x125 x154) (= x149 x125))) (= x145 x125)) (= x9 x125))) (or (or (or (= x71 x54) (or (= x54 x149) (= x54 x154))) (= x54 x145)) (= x54 x9))) (or (= x8 x9) (or (or (= x71 x8) (or (= x154 x8) (= x149 x8))) (= x8 x145)))) (and (or (= x113 x9) (or (= x145 x113) (or (or (= x113 x154) (= x113 x149)) (= x71 x113)))) (and (and (or (or (= x145 x59) (or (= x71 x59) (or (= x59 x154) (= x149 x59)))) (= x9 x59)) (and (or (= x9 x94) (or (= x145 x94) (or (= x71 x94) (or (= x94 x149) (= x94 x154))))) (or (= x41 x9) (or (= x41 x145) (or (= x41 x71) (or (= x41 x149) (= x154 x41))))))) (or (or (= x145 x12) (or (= x71 x12) (or (= x154 x12) (= x149 x12)))) (= x12 x9))))) (and (or (or (or (= x71 x48) (or (= x149 x48) (= x48 x154))) (= x48 x145)) (= x9 x48)) (and (or (= x135 x9) (or (= x145 x135) (or (= x135 x71) (or (= x154 x135) (= x149 x135))))) (and (or (or (= x145 x37) (or (or (= x37 x154) (= x149 x37)) (= x37 x71))) (= x37 x9)) (and (or (or (or (or (= x11 x154) (= x11 x149)) (= x71 x11)) (= x11 x145)) (= x9 x11)) (or (= x9 x26) (or (or (= x26 x71) (or (= x154 x26) (= x26 x149))) (= x145 x26)))))))) (and (and (and (and (or (or (= x145 x55) (or (= x71 x55) (or (= x55 x149) (= x154 x55)))) (= x55 x9)) (or (or (= x145 x46) (or (= x46 x71) (or (= x46 x149) (= x46 x154)))) (= x9 x46))) (or (= x73 x9) (or (= x73 x145) (or (or (= x73 x154) (= x149 x73)) (= x71 x73))))) (or (= x109 x9) (or (or (or (= x109 x154) (= x109 x149)) (= x71 x109)) (= x109 x145)))) (or (= x137 x9) (or (or (= x71 x137) (or (= x137 x149) (= x154 x137))) (= x145 x137))))) (and (and (and (or (or (or (= x71 x98) (or (= x154 x98) (= x149 x98))) (= x145 x98)) (= x9 x98)) (and (or (or (= x145 x74) (or (= x74 x71) (or (= x74 x149) (= x74 x154)))) (= x9 x74)) (or (or (= x145 x24) (or (or (= x24 x149) (= x154 x24)) (= x71 x24))) (= x9 x24)))) (or (= x28 x9) (or (= x145 x28) (or (= x28 x71) (or (= x154 x28) (= x149 x28)))))) (or (= x20 x9) (or (or (or (= x154 x20) (= x20 x149)) (= x20 x71)) (= x145 x20)))))))
(assert (and (not (= x9 (x139 x9 (x139 x9 x9)))) (and (not (= (x139 x145 (x139 x145 x145)) x145)) (and (and (not (= x154 (x139 x154 (x139 x154 x154)))) (not (= x149 (x139 x149 (x139 x149 x149))))) (not (= x71 (x139 x71 (x139 x71 x71))))))))
(assert (let ((x54 (x139 x71 x71)) (x8 (x139 x145 x145)) (x125 (x139 x154 x154)) (x13 (x139 x149 x149)) (x41 (x139 x9 x9))) (let ((x37 (= x71 x54)) (x48 (= x9 x41)) (x135 (= x145 x8)) (x59 (= x154 x125)) (x66 (= x13 x149))) (let ((x94 (and (not (= x41 x149)) (and (not (= x8 x149)) (and (not (= x149 x54)) (and (not x66) (not (= x125 x149))))))) (x11 (and (and (and (and (not (= x9 x125)) (not (= x9 x13))) (not (= x9 x54))) (not (= x9 x8))) (not x48))) (x12 (and (not (= x41 x154)) (and (and (and (not x59) (not (= x154 x13))) (not (= x154 x54))) (not (= x154 x8))))) (x26 (and (and (and (not (= x145 x54)) (and (not (= x145 x125)) (not (= x145 x13)))) (not x135)) (not (= x41 x145)))) (x113 (and (and (not (= x8 x71)) (and (not x37) (and (not (= x125 x71)) (not (= x13 x71))))) (not (= x71 x41))))) (and (or (and (and (and (not (= (x139 x71 x41) x71)) (and (not (= x154 (x139 x154 x41))) (not (= x149 (x139 x149 x41))))) (not (= (x139 x145 x41) x145))) (not (= (x139 x9 x41) x9))) (or (and (not (= x9 (x139 x9 x8))) (and (not (= (x139 x145 x8) x145)) (and (and (not (= (x139 x154 x8) x154)) (not (= (x139 x149 x8) x149))) (not (= (x139 x71 x8) x71))))) (or (or (and (not (= x9 (x139 x9 x125))) (and (not (= (x139 x145 x125) x145)) (and (not (= x71 (x139 x71 x125))) (and (not (= (x139 x149 x125) x149)) (not (= (x139 x154 x125) x154)))))) (and (not (= (x139 x9 x13) x9)) (and (not (= (x139 x145 x13) x145)) (and (not (= x71 (x139 x71 x13))) (and (not (= x154 (x139 x154 x13))) (not (= (x139 x149 x13) x149))))))) (and (not (= x9 (x139 x9 x54))) (and (and (and (not (= (x139 x149 x54) x149)) (not (= x154 (x139 x154 x54)))) (not (= (x139 x71 x54) x71))) (not (= (x139 x145 x54) x145))))))) (or (or (or (or (or (and x11 (= x154 (x139 x154 x9))) (or (or (or (and x59 x12) (and (= x154 (x139 x154 x149)) x94)) (and (= (x139 x154 x71) x154) x113)) (and x26 (= (x139 x154 x145) x154)))) (or (or (and x26 (= (x139 x149 x145) x149)) (or (and (= (x139 x149 x71) x149) x113) (or (and x94 x66) (and x12 (= x149 (x139 x149 x154)))))) (and x11 (= x149 (x139 x149 x9))))) (or (or (or (and x113 x37) (or (and x12 (= (x139 x71 x154) x71)) (and (= (x139 x71 x149) x71) x94))) (and (= (x139 x71 x145) x71) x26)) (and x11 (= (x139 x71 x9) x71)))) (or (or (or (and (= x145 (x139 x145 x71)) x113) (or (and x12 (= (x139 x145 x154) x145)) (and x94 (= (x139 x145 x149) x145)))) (and x26 x135)) (and (= (x139 x145 x9) x145) x11))) (or (and x11 x48) (or (and (= (x139 x9 x145) x9) x26) (or (or (and (= x9 (x139 x9 x149)) x94) (and x12 (= x9 (x139 x9 x154)))) (and x113 (= (x139 x9 x71) x9)))))))))))
(assert (and (and (and (not (= x71 (x139 x71 x71))) (and (not (= (x139 x149 x149) x149)) (not (= x154 (x139 x154 x154))))) (not (= (x139 x145 x145) x145))) (not (= x9 (x139 x9 x9)))))
(assert (not (and (= x149 (x139 x9 x9)) (and (and (= x71 (x139 x9 x71)) (and (and (and (and (and (= x149 (x139 x145 x71)) (and (and (= x145 (x139 x145 x149)) (and (and (= x154 (x139 x71 x145)) (and (and (and (and (= (x139 x154 x9) x71) (and (and (= x154 (x139 x154 x71)) (and (and (= (x139 x154 x149) x9) (and (= (x139 x149 x9) x154) (and (and (and (= x71 (x139 x149 x149)) (= x9 (x139 x149 x154))) (= x145 (x139 x149 x71))) (= x149 (x139 x149 x145))))) (= x149 (x139 x154 x154)))) (= (x139 x154 x145) x145))) (= x149 (x139 x71 x149))) (= (x139 x71 x154) x71)) (= (x139 x71 x71) x9))) (= (x139 x71 x9) x145))) (= x154 (x139 x145 x154)))) (= x71 (x139 x145 x145))) (= x9 (x139 x145 x9))) (= x154 (x139 x9 x149))) (= (x139 x9 x154) x145))) (= x9 (x139 x9 x145))))))
(assert (let ((x54 (x139 x145 x145)) (x8 (x139 x9 x9)) (x125 (x139 x71 x71)) (x13 (x139 x154 x154)) (x66 (x139 x149 x149))) (or (and (not (= x9 x8)) (and (not (= x54 x9)) (and (and (not (= x66 x9)) (not (= x9 x13))) (not (= x9 x125))))) (or (or (and (not (= x71 x8)) (and (and (and (not (= x71 x66)) (not (= x13 x71))) (not (= x71 x125))) (not (= x71 x54)))) (or (and (not (= x8 x154)) (and (and (not (= x125 x154)) (and (not (= x13 x154)) (not (= x154 x66)))) (not (= x54 x154)))) (and (and (and (not (= x149 x125)) (and (not (= x149 x66)) (not (= x13 x149)))) (not (= x54 x149))) (not (= x149 x8))))) (and (not (= x145 x8)) (and (not (= x54 x145)) (and (not (= x145 x125)) (and (not (= x66 x145)) (not (= x145 x13))))))))))
(assert (let ((x59 (x139 x71 x154)) (x8 (x139 x9 x149)) (x37 (x139 x71 x71)) (x74 (x139 x149 x9)) (x48 (x139 x9 x71)) (x54 (x139 x145 x149)) (x113 (x139 x9 x154)) (x12 (x139 x145 x154)) (x13 (x139 x154 x149)) (x66 (x139 x149 x149)) (x46 (x139 x149 x145)) (x41 (x139 x149 x154)) (x135 (x139 x145 x71)) (x98 (x139 x71 x9)) (x20 (x139 x9 x9)) (x94 (x139 x154 x154)) (x73 (x139 x71 x145)) (x11 (x139 x154 x71)) (x109 (x139 x145 x145)) (x24 (x139 x154 x9)) (x26 (x139 x149 x71)) (x137 (x139 x9 x145)) (x55 (x139 x154 x145)) (x28 (x139 x145 x9)) (x125 (x139 x71 x149))) (and (and (and (and (and (not (= x73 x98)) (and (and (not (= x73 x37)) (and (not (= x59 x98)) (and (not (= x59 x73)) (and (and (not (= x125 x98)) (and (not (= x73 x125)) (and (not (= x125 x59)) (not (= x37 x125))))) (not (= x59 x37)))))) (not (= x98 x37)))) (and (and (and (and (and (and (not (= x41 x46)) (and (not (= x26 x41)) (and (and (not (= x46 x66)) (and (not (= x66 x26)) (not (= x66 x41)))) (not (= x66 x74))))) (not (= x41 x74))) (not (= x26 x46))) (not (= x26 x74))) (not (= x74 x46))) (and (and (and (not (= x55 x11)) (and (and (not (= x55 x94)) (and (and (and (not (= x13 x55)) (and (not (= x94 x13)) (not (= x11 x13)))) (not (= x24 x13))) (not (= x94 x11)))) (not (= x94 x24)))) (not (= x11 x24))) (not (= x55 x24))))) (and (and (and (and (and (and (not (= x135 x12)) (and (not (= x28 x54)) (and (and (not (= x135 x54)) (not (= x54 x12))) (not (= x54 x109))))) (not (= x109 x12))) (not (= x28 x12))) (not (= x109 x135))) (not (= x28 x135))) (not (= x28 x109)))) (and (not (= x137 x20)) (and (not (= x20 x48)) (and (and (and (not (= x113 x137)) (and (and (and (and (not (= x48 x8)) (not (= x8 x113))) (not (= x137 x8))) (not (= x20 x8))) (not (= x48 x113)))) (not (= x113 x20))) (not (= x48 x137)))))) (and (and (and (and (and (and (not (= x24 x28)) (and (not (= x24 x98)) (and (not (= x74 x20)) (and (and (not (= x74 x98)) (not (= x74 x24))) (not (= x28 x74)))))) (not (= x24 x20))) (not (= x28 x98))) (not (= x98 x20))) (not (= x28 x20))) (and (and (and (and (not (= x73 x109)) (and (not (= x55 x137)) (and (and (not (= x55 x73)) (and (not (= x46 x137)) (and (not (= x109 x46)) (and (not (= x46 x55)) (not (= x73 x46)))))) (not (= x55 x109))))) (not (= x137 x73))) (not (= x109 x137))) (and (and (and (and (and (and (not (= x11 x135)) (and (not (= x11 x37)) (and (not (= x26 x48)) (and (and (not (= x37 x26)) (not (= x11 x26))) (not (= x26 x135)))))) (not (= x11 x48))) (not (= x135 x37))) (not (= x37 x48))) (not (= x135 x48))) (and (and (not (= x113 x12)) (and (and (and (and (and (and (and (not (= x41 x12)) (and (not (= x59 x41)) (not (= x41 x94)))) (not (= x41 x113))) (not (= x59 x94))) (not (= x94 x12))) (not (= x94 x113))) (not (= x59 x12))) (not (= x59 x113)))) (and (and (and (and (and (and (and (and (and (not (= x13 x66)) (not (= x66 x125))) (not (= x54 x66))) (not (= x8 x66))) (not (= x125 x13))) (not (= x13 x54))) (not (= x13 x8))) (not (= x125 x54))) (not (= x8 x125))) (not (= x54 x8))))))))))
(check-sat)
(exit)
